NAME          PK_ROADS
ROWS
 N	COST
 L  ED0012
 L  ED0020
 L  ED0029
 L  ED0030
 L  ED0120
 L  ED0121
 L  ED0125
 L  ED0208
 L  ED0211
 L  ED0312
 L  ED0320
 L  ED0327
 L  ED0330
 L  ED0406
 L  ED0415
 L  ED0423
 L  ED0431
 L  ED0511
 L  ED0526
 L  ED0556
 L  ED0604
 L  ED0619
 L  ED0623
 L  ED0751
 L  ED0802
 L  ED0847
 L  ED0915
 L  ED0944
 L  ED0958
 L  ED1013
 L  ED1015
 L  ED1055
 L  ED1102
 L  ED1105
 L  ED1122
 L  ED1200
 L  ED1203
 L  ED1220
 L  ED1310
 L  ED1421
 L  ED1423
 L  ED1430
 L  ED1431
 L  ED1504
 L  ED1509
 L  ED1510
 L  ED1534
 L  ED1536
 L  ED1640
 L  ED1650
 L  ED1725
 L  ED1823
 L  ED1849
 L  ED1906
 L  ED1932
 L  ED2000
 L  ED2001
 L  ED2003
 L  ED2012
 L  ED2048
 L  ED2101
 L  ED2114
 L  ED2123
 L  ED2149
 L  ED2211
 L  ED2304
 L  ED2306
 L  ED2314
 L  ED2318
 L  ED2321
 L  ED2438
 L  ED2501
 L  ED2517
 L  ED2549
 L  ED2605
 L  ED2630
 L  ED2647
 L  ED2703
 L  ED2730
 L  ED2754
 L  ED2835
 L  ED2842
 L  ED2900
 L  ED3000
 L  ED3003
 L  ED3014
 L  ED3026
 L  ED3027
 L  ED3047
 L  ED3104
 L  ED3114
 L  ED3133
 L  ED3219
 L  ED3251
 L  ED3331
 L  ED3338
 L  ED3347
 L  ED3415
 L  ED3438
 L  ED3446
 L  ED3528
 L  ED3615
 L  ED3750
 L  ED3824
 L  ED3833
 L  ED3834
 L  ED3952
 L  ED3959
 L  ED4016
 L  ED4045
 L  ED4048
 L  ED4147
 L  ED4228
 L  ED4244
 L  ED4359
 L  ED4409
 L  ED4442
 L  ED4540
 L  ED4634
 L  ED4708
 L  ED4726
 L  ED4730
 L  ED4733
 L  ED4741
 L  ED4820
 L  ED4840
 L  ED4853
 L  ED4918
 L  ED4921
 L  ED4925
 L  ED5016
 L  ED5037
 L  ED5059
 L  ED5107
 L  ED5132
 L  ED5155
 L  ED5157
 L  ED5239
 L  ED5348
 L  ED5427
 L  ED5510
 L  ED5551
 L  ED5605
 L  ED5751
 L  ED5809
 L  ED5939
 L  ED5943
 L  ED5950
 E  VERT01
 E  VERT03
 E  VERT04
 E  VERT05
 E  VERT06
 E  VERT07
 E  VERT08
 E  VERT09
 E  VERT10
 E  VERT11
 E  VERT12
 E  VERT13
 E  VERT14
 E  VERT15
 E  VERT16
 E  VERT17
 E  VERT18
 E  VERT19
 E  VERT20
 E  VERT21
 E  VERT22
 E  VERT23
 E  VERT24
 E  VERT25
 E  VERT26
 E  VERT27
 E  VERT28
 E  VERT29
 E  VERT30
 E  VERT31
 E  VERT32
 E  VERT33
 E  VERT34
 E  VERT35
 E  VERT36
 E  VERT37
 E  VERT38
 E  VERT39
 E  VERT40
 E  VERT41
 E  VERT42
 E  VERT43
 E  VERT44
 E  VERT45
 E  VERT46
 E  VERT47
 E  VERT48
 E  VERT49
 E  VERT50
 E  VERT51
 E  VERT52
 E  VERT53
 E  VERT54
 E  VERT55
 E  VERT56
 E  VERT57
 E  VERT58
 E  VERT59
 E  SRCDST
COLUMNS
	FL0012		COST		-1
	FL0012		ED0012		1
	FL0012		SRCDST		-1
	FL0020		COST		-1
	FL0020		ED0020		1
	FL0020		SRCDST		-1
	FL0029		COST		-1
	FL0029		ED0029		1
	FL0029		SRCDST		-1
	FL0030		COST		-1
	FL0030		ED0030		1
	FL0030		SRCDST		-1
	FL0120		COST		-1
	FL0120		ED0120		1
	FL0120		VERT01		-1
	FL0120		VERT20		1
	FL0121		COST		-1
	FL0121		ED0121		1
	FL0121		VERT01		-1
	FL0121		VERT21		1
	FL0125		COST		-1
	FL0125		ED0125		1
	FL0125		VERT01		-1
	FL0125		VERT25		1
	FL0208		COST		-1
	FL0208		ED0208		1
	FL0211		COST		-1
	FL0211		ED0211		1
	FL0312		COST		-1
	FL0312		ED0312		1
	FL0312		VERT03		-1
	FL0312		VERT12		1
	FL0320		COST		-1
	FL0320		ED0320		1
	FL0320		VERT03		-1
	FL0320		VERT20		1
	FL0327		COST		-1
	FL0327		ED0327		1
	FL0327		VERT03		-1
	FL0327		VERT27		1
	FL0330		COST		-1
	FL0330		ED0330		1
	FL0330		VERT03		-1
	FL0330		VERT30		1
	FL0406		COST		-1
	FL0406		ED0406		1
	FL0406		VERT04		-1
	FL0406		VERT06		1
	FL0415		COST		-1
	FL0415		ED0415		1
	FL0415		VERT04		-1
	FL0415		VERT15		1
	FL0423		COST		-1
	FL0423		ED0423		1
	FL0423		VERT04		-1
	FL0423		VERT23		1
	FL0431		COST		-1
	FL0431		ED0431		1
	FL0431		VERT04		-1
	FL0431		VERT31		1
	FL0511		COST		-1
	FL0511		ED0511		1
	FL0511		VERT05		-1
	FL0511		VERT11		1
	FL0526		COST		-1
	FL0526		ED0526		1
	FL0526		VERT05		-1
	FL0526		VERT26		1
	FL0556		COST		-1
	FL0556		ED0556		1
	FL0556		VERT05		-1
	FL0556		VERT56		1
	FL0604		COST		-1
	FL0604		ED0604		1
	FL0604		VERT06		-1
	FL0604		VERT04		1
	FL0619		COST		-1
	FL0619		ED0619		1
	FL0619		VERT06		-1
	FL0619		VERT19		1
	FL0623		COST		-1
	FL0623		ED0623		1
	FL0623		VERT06		-1
	FL0623		VERT23		1
	FL0751		COST		-1
	FL0751		ED0751		1
	FL0751		VERT07		-1
	FL0751		VERT51		1
	FL0802		COST		-1
	FL0802		ED0802		1
	FL0802		SRCDST		1
	FL0847		COST		-1
	FL0847		ED0847		1
	FL0847		VERT08		-1
	FL0847		VERT47		1
	FL0915		COST		-1
	FL0915		ED0915		1
	FL0915		VERT09		-1
	FL0915		VERT15		1
	FL0944		COST		-1
	FL0944		ED0944		1
	FL0944		VERT09		-1
	FL0944		VERT44		1
	FL0958		COST		-1
	FL0958		ED0958		1
	FL0958		VERT09		-1
	FL0958		VERT58		1
	FL1013		COST		-1
	FL1013		ED1013		1
	FL1013		VERT10		-1
	FL1013		VERT13		1
	FL1015		COST		-1
	FL1015		ED1015		1
	FL1015		VERT10		-1
	FL1015		VERT15		1
	FL1055		COST		-1
	FL1055		ED1055		1
	FL1055		VERT10		-1
	FL1055		VERT55		1
	FL1102		COST		-1
	FL1102		ED1102		1
	FL1102		SRCDST		1
	FL1105		COST		-1
	FL1105		ED1105		1
	FL1105		VERT11		-1
	FL1105		VERT05		1
	FL1122		COST		-1
	FL1122		ED1122		1
	FL1122		VERT11		-1
	FL1122		VERT22		1
	FL1200		COST		-1
	FL1200		ED1200		1
	FL1203		COST		-1
	FL1203		ED1203		1
	FL1203		VERT12		-1
	FL1203		VERT03		1
	FL1220		COST		-1
	FL1220		ED1220		1
	FL1220		VERT12		-1
	FL1220		VERT20		1
	FL1310		COST		-1
	FL1310		ED1310		1
	FL1310		VERT13		-1
	FL1310		VERT10		1
	FL1421		COST		-1
	FL1421		ED1421		1
	FL1421		VERT14		-1
	FL1421		VERT21		1
	FL1423		COST		-1
	FL1423		ED1423		1
	FL1423		VERT14		-1
	FL1423		VERT23		1
	FL1430		COST		-1
	FL1430		ED1430		1
	FL1430		VERT14		-1
	FL1430		VERT30		1
	FL1431		COST		-1
	FL1431		ED1431		1
	FL1431		VERT14		-1
	FL1431		VERT31		1
	FL1504		COST		-1
	FL1504		ED1504		1
	FL1504		VERT15		-1
	FL1504		VERT04		1
	FL1509		COST		-1
	FL1509		ED1509		1
	FL1509		VERT15		-1
	FL1509		VERT09		1
	FL1510		COST		-1
	FL1510		ED1510		1
	FL1510		VERT15		-1
	FL1510		VERT10		1
	FL1534		COST		-1
	FL1534		ED1534		1
	FL1534		VERT15		-1
	FL1534		VERT34		1
	FL1536		COST		-1
	FL1536		ED1536		1
	FL1536		VERT15		-1
	FL1536		VERT36		1
	FL1640		COST		-1
	FL1640		ED1640		1
	FL1640		VERT16		-1
	FL1640		VERT40		1
	FL1650		COST		-1
	FL1650		ED1650		1
	FL1650		VERT16		-1
	FL1650		VERT50		1
	FL1725		COST		-1
	FL1725		ED1725		1
	FL1725		VERT17		-1
	FL1725		VERT25		1
	FL1823		COST		-1
	FL1823		ED1823		1
	FL1823		VERT18		-1
	FL1823		VERT23		1
	FL1849		COST		-1
	FL1849		ED1849		1
	FL1849		VERT18		-1
	FL1849		VERT49		1
	FL1906		COST		-1
	FL1906		ED1906		1
	FL1906		VERT19		-1
	FL1906		VERT06		1
	FL1932		COST		-1
	FL1932		ED1932		1
	FL1932		VERT19		-1
	FL1932		VERT32		1
	FL2000		COST		-1
	FL2000		ED2000		1
	FL2001		COST		-1
	FL2001		ED2001		1
	FL2001		VERT20		-1
	FL2001		VERT01		1
	FL2003		COST		-1
	FL2003		ED2003		1
	FL2003		VERT20		-1
	FL2003		VERT03		1
	FL2012		COST		-1
	FL2012		ED2012		1
	FL2012		VERT20		-1
	FL2012		VERT12		1
	FL2048		COST		-1
	FL2048		ED2048		1
	FL2048		VERT20		-1
	FL2048		VERT48		1
	FL2101		COST		-1
	FL2101		ED2101		1
	FL2101		VERT21		-1
	FL2101		VERT01		1
	FL2114		COST		-1
	FL2114		ED2114		1
	FL2114		VERT21		-1
	FL2114		VERT14		1
	FL2123		COST		-1
	FL2123		ED2123		1
	FL2123		VERT21		-1
	FL2123		VERT23		1
	FL2149		COST		-1
	FL2149		ED2149		1
	FL2149		VERT21		-1
	FL2149		VERT49		1
	FL2211		COST		-1
	FL2211		ED2211		1
	FL2211		VERT22		-1
	FL2211		VERT11		1
	FL2304		COST		-1
	FL2304		ED2304		1
	FL2304		VERT23		-1
	FL2304		VERT04		1
	FL2306		COST		-1
	FL2306		ED2306		1
	FL2306		VERT23		-1
	FL2306		VERT06		1
	FL2314		COST		-1
	FL2314		ED2314		1
	FL2314		VERT23		-1
	FL2314		VERT14		1
	FL2318		COST		-1
	FL2318		ED2318		1
	FL2318		VERT23		-1
	FL2318		VERT18		1
	FL2321		COST		-1
	FL2321		ED2321		1
	FL2321		VERT23		-1
	FL2321		VERT21		1
	FL2438		COST		-1
	FL2438		ED2438		1
	FL2438		VERT24		-1
	FL2438		VERT38		1
	FL2501		COST		-1
	FL2501		ED2501		1
	FL2501		VERT25		-1
	FL2501		VERT01		1
	FL2517		COST		-1
	FL2517		ED2517		1
	FL2517		VERT25		-1
	FL2517		VERT17		1
	FL2549		COST		-1
	FL2549		ED2549		1
	FL2549		VERT25		-1
	FL2549		VERT49		1
	FL2605		COST		-1
	FL2605		ED2605		1
	FL2605		VERT26		-1
	FL2605		VERT05		1
	FL2630		COST		-1
	FL2630		ED2630		1
	FL2630		VERT26		-1
	FL2630		VERT30		1
	FL2647		COST		-1
	FL2647		ED2647		1
	FL2647		VERT26		-1
	FL2647		VERT47		1
	FL2703		COST		-1
	FL2703		ED2703		1
	FL2703		VERT27		-1
	FL2703		VERT03		1
	FL2730		COST		-1
	FL2730		ED2730		1
	FL2730		VERT27		-1
	FL2730		VERT30		1
	FL2754		COST		-1
	FL2754		ED2754		1
	FL2754		VERT27		-1
	FL2754		VERT54		1
	FL2835		COST		-1
	FL2835		ED2835		1
	FL2835		VERT28		-1
	FL2835		VERT35		1
	FL2842		COST		-1
	FL2842		ED2842		1
	FL2842		VERT28		-1
	FL2842		VERT42		1
	FL2900		COST		-1
	FL2900		ED2900		1
	FL3000		COST		-1
	FL3000		ED3000		1
	FL3003		COST		-1
	FL3003		ED3003		1
	FL3003		VERT30		-1
	FL3003		VERT03		1
	FL3014		COST		-1
	FL3014		ED3014		1
	FL3014		VERT30		-1
	FL3014		VERT14		1
	FL3026		COST		-1
	FL3026		ED3026		1
	FL3026		VERT30		-1
	FL3026		VERT26		1
	FL3027		COST		-1
	FL3027		ED3027		1
	FL3027		VERT30		-1
	FL3027		VERT27		1
	FL3047		COST		-1
	FL3047		ED3047		1
	FL3047		VERT30		-1
	FL3047		VERT47		1
	FL3104		COST		-1
	FL3104		ED3104		1
	FL3104		VERT31		-1
	FL3104		VERT04		1
	FL3114		COST		-1
	FL3114		ED3114		1
	FL3114		VERT31		-1
	FL3114		VERT14		1
	FL3133		COST		-1
	FL3133		ED3133		1
	FL3133		VERT31		-1
	FL3133		VERT33		1
	FL3219		COST		-1
	FL3219		ED3219		1
	FL3219		VERT32		-1
	FL3219		VERT19		1
	FL3251		COST		-1
	FL3251		ED3251		1
	FL3251		VERT32		-1
	FL3251		VERT51		1
	FL3331		COST		-1
	FL3331		ED3331		1
	FL3331		VERT33		-1
	FL3331		VERT31		1
	FL3338		COST		-1
	FL3338		ED3338		1
	FL3338		VERT33		-1
	FL3338		VERT38		1
	FL3347		COST		-1
	FL3347		ED3347		1
	FL3347		VERT33		-1
	FL3347		VERT47		1
	FL3415		COST		-1
	FL3415		ED3415		1
	FL3415		VERT34		-1
	FL3415		VERT15		1
	FL3438		COST		-1
	FL3438		ED3438		1
	FL3438		VERT34		-1
	FL3438		VERT38		1
	FL3446		COST		-1
	FL3446		ED3446		1
	FL3446		VERT34		-1
	FL3446		VERT46		1
	FL3528		COST		-1
	FL3528		ED3528		1
	FL3528		VERT35		-1
	FL3528		VERT28		1
	FL3615		COST		-1
	FL3615		ED3615		1
	FL3615		VERT36		-1
	FL3615		VERT15		1
	FL3750		COST		-1
	FL3750		ED3750		1
	FL3750		VERT37		-1
	FL3750		VERT50		1
	FL3824		COST		-1
	FL3824		ED3824		1
	FL3824		VERT38		-1
	FL3824		VERT24		1
	FL3833		COST		-1
	FL3833		ED3833		1
	FL3833		VERT38		-1
	FL3833		VERT33		1
	FL3834		COST		-1
	FL3834		ED3834		1
	FL3834		VERT38		-1
	FL3834		VERT34		1
	FL3952		COST		-1
	FL3952		ED3952		1
	FL3952		VERT39		-1
	FL3952		VERT52		1
	FL3959		COST		-1
	FL3959		ED3959		1
	FL3959		VERT39		-1
	FL3959		VERT59		1
	FL4016		COST		-1
	FL4016		ED4016		1
	FL4016		VERT40		-1
	FL4016		VERT16		1
	FL4045		COST		-1
	FL4045		ED4045		1
	FL4045		VERT40		-1
	FL4045		VERT45		1
	FL4048		COST		-1
	FL4048		ED4048		1
	FL4048		VERT40		-1
	FL4048		VERT48		1
	FL4147		COST		-1
	FL4147		ED4147		1
	FL4147		VERT41		-1
	FL4147		VERT47		1
	FL4228		COST		-1
	FL4228		ED4228		1
	FL4228		VERT42		-1
	FL4228		VERT28		1
	FL4244		COST		-1
	FL4244		ED4244		1
	FL4244		VERT42		-1
	FL4244		VERT44		1
	FL4359		COST		-1
	FL4359		ED4359		1
	FL4359		VERT43		-1
	FL4359		VERT59		1
	FL4409		COST		-1
	FL4409		ED4409		1
	FL4409		VERT44		-1
	FL4409		VERT09		1
	FL4442		COST		-1
	FL4442		ED4442		1
	FL4442		VERT44		-1
	FL4442		VERT42		1
	FL4540		COST		-1
	FL4540		ED4540		1
	FL4540		VERT45		-1
	FL4540		VERT40		1
	FL4634		COST		-1
	FL4634		ED4634		1
	FL4634		VERT46		-1
	FL4634		VERT34		1
	FL4708		COST		-1
	FL4708		ED4708		1
	FL4708		VERT47		-1
	FL4708		VERT08		1
	FL4726		COST		-1
	FL4726		ED4726		1
	FL4726		VERT47		-1
	FL4726		VERT26		1
	FL4730		COST		-1
	FL4730		ED4730		1
	FL4730		VERT47		-1
	FL4730		VERT30		1
	FL4733		COST		-1
	FL4733		ED4733		1
	FL4733		VERT47		-1
	FL4733		VERT33		1
	FL4741		COST		-1
	FL4741		ED4741		1
	FL4741		VERT47		-1
	FL4741		VERT41		1
	FL4820		COST		-1
	FL4820		ED4820		1
	FL4820		VERT48		-1
	FL4820		VERT20		1
	FL4840		COST		-1
	FL4840		ED4840		1
	FL4840		VERT48		-1
	FL4840		VERT40		1
	FL4853		COST		-1
	FL4853		ED4853		1
	FL4853		VERT48		-1
	FL4853		VERT53		1
	FL4918		COST		-1
	FL4918		ED4918		1
	FL4918		VERT49		-1
	FL4918		VERT18		1
	FL4921		COST		-1
	FL4921		ED4921		1
	FL4921		VERT49		-1
	FL4921		VERT21		1
	FL4925		COST		-1
	FL4925		ED4925		1
	FL4925		VERT49		-1
	FL4925		VERT25		1
	FL5016		COST		-1
	FL5016		ED5016		1
	FL5016		VERT50		-1
	FL5016		VERT16		1
	FL5037		COST		-1
	FL5037		ED5037		1
	FL5037		VERT50		-1
	FL5037		VERT37		1
	FL5059		COST		-1
	FL5059		ED5059		1
	FL5059		VERT50		-1
	FL5059		VERT59		1
	FL5107		COST		-1
	FL5107		ED5107		1
	FL5107		VERT51		-1
	FL5107		VERT07		1
	FL5132		COST		-1
	FL5132		ED5132		1
	FL5132		VERT51		-1
	FL5132		VERT32		1
	FL5155		COST		-1
	FL5155		ED5155		1
	FL5155		VERT51		-1
	FL5155		VERT55		1
	FL5157		COST		-1
	FL5157		ED5157		1
	FL5157		VERT51		-1
	FL5157		VERT57		1
	FL5239		COST		-1
	FL5239		ED5239		1
	FL5239		VERT52		-1
	FL5239		VERT39		1
	FL5348		COST		-1
	FL5348		ED5348		1
	FL5348		VERT53		-1
	FL5348		VERT48		1
	FL5427		COST		-1
	FL5427		ED5427		1
	FL5427		VERT54		-1
	FL5427		VERT27		1
	FL5510		COST		-1
	FL5510		ED5510		1
	FL5510		VERT55		-1
	FL5510		VERT10		1
	FL5551		COST		-1
	FL5551		ED5551		1
	FL5551		VERT55		-1
	FL5551		VERT51		1
	FL5605		COST		-1
	FL5605		ED5605		1
	FL5605		VERT56		-1
	FL5605		VERT05		1
	FL5751		COST		-1
	FL5751		ED5751		1
	FL5751		VERT57		-1
	FL5751		VERT51		1
	FL5809		COST		-1
	FL5809		ED5809		1
	FL5809		VERT58		-1
	FL5809		VERT09		1
	FL5939		COST		-1
	FL5939		ED5939		1
	FL5939		VERT59		-1
	FL5939		VERT39		1
	FL5943		COST		-1
	FL5943		ED5943		1
	FL5943		VERT59		-1
	FL5943		VERT43		1
	FL5950		COST		-1
	FL5950		ED5950		1
	FL5950		VERT59		-1
	FL5950		VERT50		1
RHS
	RHS1		ED0012		13950
	RHS1		ED0020		28350
	RHS1		ED0029		15300
	RHS1		ED0030		32400
	RHS1		ED0120		16200
	RHS1		ED0121		17100
	RHS1		ED0125		25200
	RHS1		ED0208		23850
	RHS1		ED0211		25200
	RHS1		ED0312		5850
	RHS1		ED0320		19800
	RHS1		ED0327		3150
	RHS1		ED0330		12600
	RHS1		ED0406		48600
	RHS1		ED0415		85050
	RHS1		ED0423		43200
	RHS1		ED0431		14400
	RHS1		ED0511		10350
	RHS1		ED0526		13950
	RHS1		ED0556		4050
	RHS1		ED0604		48600
	RHS1		ED0619		36900
	RHS1		ED0623		27000
	RHS1		ED0751		9000
	RHS1		ED0802		23850
	RHS1		ED0847		5400
	RHS1		ED0915		28800
	RHS1		ED0944		12150
	RHS1		ED0958		14400
	RHS1		ED1013		24300
	RHS1		ED1015		93900
	RHS1		ED1055		8100
	RHS1		ED1102		25200
	RHS1		ED1105		10350
	RHS1		ED1122		6300
	RHS1		ED1200		13950
	RHS1		ED1203		5850
	RHS1		ED1220		13200
	RHS1		ED1310		24300
	RHS1		ED1421		10500
	RHS1		ED1423		9900
	RHS1		ED1430		28500
	RHS1		ED1431		15300
	RHS1		ED1504		85050
	RHS1		ED1509		28800
	RHS1		ED1510		93900
	RHS1		ED1534		25500
	RHS1		ED1536		3900
	RHS1		ED1640		14100
	RHS1		ED1650		10500
	RHS1		ED1725		14700
	RHS1		ED1823		7800
	RHS1		ED1849		6600
	RHS1		ED1906		36900
	RHS1		ED1932		5400
	RHS1		ED2000		28350
	RHS1		ED2001		16200
	RHS1		ED2003		19800
	RHS1		ED2012		13200
	RHS1		ED2048		15000
	RHS1		ED2101		17100
	RHS1		ED2114		10500
	RHS1		ED2123		14400
	RHS1		ED2149		9300
	RHS1		ED2211		6300
	RHS1		ED2304		43200
	RHS1		ED2306		27000
	RHS1		ED2314		9900
	RHS1		ED2318		7800
	RHS1		ED2321		14400
	RHS1		ED2438		24900
	RHS1		ED2501		25200
	RHS1		ED2517		14700
	RHS1		ED2549		9600
	RHS1		ED2605		13950
	RHS1		ED2630		3300
	RHS1		ED2647		25800
	RHS1		ED2703		3150
	RHS1		ED2730		8100
	RHS1		ED2754		3000
	RHS1		ED2835		18600
	RHS1		ED2842		23400
	RHS1		ED2900		15300
	RHS1		ED3000		32400
	RHS1		ED3003		12600
	RHS1		ED3014		28500
	RHS1		ED3026		3300
	RHS1		ED3027		8100
	RHS1		ED3047		26400
	RHS1		ED3104		14400
	RHS1		ED3114		15300
	RHS1		ED3133		34500
	RHS1		ED3219		5400
	RHS1		ED3251		10800
	RHS1		ED3331		34500
	RHS1		ED3338		19500
	RHS1		ED3347		7500
	RHS1		ED3415		25500
	RHS1		ED3438		57900
	RHS1		ED3446		7800
	RHS1		ED3528		18600
	RHS1		ED3615		3900
	RHS1		ED3750		4200
	RHS1		ED3824		24900
	RHS1		ED3833		19500
	RHS1		ED3834		57900
	RHS1		ED3952		14100
	RHS1		ED3959		2100
	RHS1		ED4016		14100
	RHS1		ED4045		5100
	RHS1		ED4048		5700
	RHS1		ED4147		3600
	RHS1		ED4228		23400
	RHS1		ED4244		3600
	RHS1		ED4359		3000
	RHS1		ED4409		12150
	RHS1		ED4442		3600
	RHS1		ED4540		5100
	RHS1		ED4634		7800
	RHS1		ED4708		5400
	RHS1		ED4726		25800
	RHS1		ED4730		26400
	RHS1		ED4733		7500
	RHS1		ED4741		3600
	RHS1		ED4820		15000
	RHS1		ED4840		5700
	RHS1		ED4853		6300
	RHS1		ED4918		6600
	RHS1		ED4921		9300
	RHS1		ED4925		9600
	RHS1		ED5016		10500
	RHS1		ED5037		4200
	RHS1		ED5059		8100
	RHS1		ED5107		9000
	RHS1		ED5132		10800
	RHS1		ED5155		8100
	RHS1		ED5157		3300
	RHS1		ED5239		14100
	RHS1		ED5348		6300
	RHS1		ED5427		3000
	RHS1		ED5510		8100
	RHS1		ED5551		8100
	RHS1		ED5605		4050
	RHS1		ED5751		3300
	RHS1		ED5809		14400
	RHS1		ED5939		2100
	RHS1		ED5943		3000
	RHS1		ED5950		8100
ENDATA
